CapLotSizing_PM/src/Instancias/TCHSLT/25i6p2m/NBB07.OUT
 CG ITER, OVMR, OVMRUB =           1   69977.4140625   69977.4062500
 CG ITER, OVMR, OVMRUB =           2   69372.8046875   69372.8046875
 CG ITER, OVMR, OVMRUB =           3   64566.0468750   68275.7031250
 CG ITER, OVMR, OVMRUB =           4   57286.9570312   68275.7031250
 CG ITER, OVMR, OVMRUB =           5   55507.5351562   65252.0898438
 CG ITER, OVMR, OVMRUB =           6   55118.3398438   65252.0898438
 CG ITER, OVMR, OVMRUB =           7   54842.8007812   65252.0898438
 CG ITER, OVMR, OVMRUB =           8   54562.1132812   61750.3906250
 CG ITER, OVMR, OVMRUB =           9   54303.9257812   61750.3906250
 CG ITER, OVMR, OVMRUB =          10   54052.3046875   61750.3906250
 CG ITER, OVMR, OVMRUB =          11   53866.4960938   61750.3906250
 CG ITER, OVMR, OVMRUB =          12   53728.0195312   61750.3906250
 CG ITER, OVMR, OVMRUB =          13   53639.5585938   61750.3906250
 CG ITER, OVMR, OVMRUB =          14   53485.7187500   61750.3906250
 CG ITER, OVMR, OVMRUB =          15   53385.1718750   61750.3906250
 CG ITER, OVMR, OVMRUB =          16   53296.4843750   61750.3906250
 CG ITER, OVMR, OVMRUB =          17   53205.4375000   61750.3906250
 CG ITER, OVMR, OVMRUB =          18   53116.3320312   61750.3906250
 CG ITER, OVMR, OVMRUB =          19   53029.7890625   61750.3906250
 CG ITER, OVMR, OVMRUB =          20   52957.4492188   61750.3906250
 CG ITER, OVMR, OVMRUB =          21   52877.8125000   61750.3906250
 CG ITER, OVMR, OVMRUB =          22   52837.3398438   61750.3906250
 CG ITER, OVMR, OVMRUB =          23   52777.8554688   61750.3906250
 CG ITER, OVMR, OVMRUB =          24   52688.5078125   61750.3906250
 CG ITER, OVMR, OVMRUB =          25   52625.1835938   61750.3906250
 CG ITER, OVMR, OVMRUB =          26   52506.1445312   61750.3906250
 CG ITER, OVMR, OVMRUB =          27   52444.9453125   61247.3984375
 CG ITER, OVMR, OVMRUB =          28   52400.3125000   61247.3984375
 CG ITER, OVMR, OVMRUB =          29   52348.9335938   61247.3984375
 CG ITER, OVMR, OVMRUB =          30   52308.5507812   61247.3984375
 CG ITER, OVMR, OVMRUB =          31   52243.7929688   61247.3984375
 CG ITER, OVMR, OVMRUB =          32   52140.5546875   61247.3984375
 CG ITER, OVMR, OVMRUB =          33   52055.9375000   61247.3984375
 CG ITER, OVMR, OVMRUB =          34   52018.2539062   61247.3984375
 CG ITER, OVMR, OVMRUB =          35   51934.9296875   61247.3984375
 CG ITER, OVMR, OVMRUB =          36   51888.8007812   61247.3984375
 CG ITER, OVMR, OVMRUB =          37   51857.0625000   61247.3984375
 CG ITER, OVMR, OVMRUB =          38   51831.9179688   61247.3984375
 CG ITER, OVMR, OVMRUB =          39   51819.1093750   59820.5859375
 CG ITER, OVMR, OVMRUB =          40   51817.1562500   59820.5859375
 CG ITER, OVMR, OVMRUB =          41   51781.3085938   59820.5859375
 CG ITER, OVMR, OVMRUB =          42   51747.8632812   59034.1679688
 CG ITER, OVMR, OVMRUB =          43   51744.5859375   59034.1679688
 CG ITER, OVMR, OVMRUB =          44   51731.0820312   59034.1679688
 CG ITER, OVMR, OVMRUB =          45   51716.7500000   59034.1679688
 CG ITER, OVMR, OVMRUB =          46   51726.5976562   59034.1679688
 CG ITER, OVMR, OVMRUB =          47   51716.0585938   59034.1679688
 CG ITER, OVMR, OVMRUB =          48   51647.5703125   59034.1679688
 CG ITER, OVMR, OVMRUB =          49   51640.4414062   59034.1679688
 CG ITER, OVMR, OVMRUB =          50   51638.1601562   59034.1679688
 CG ITER, OVMR, OVMRUB =          51   51612.6796875   59034.1679688
 CG ITER, OVMR, OVMRUB =          52   51612.1523438   59034.1679688
 CG ITER, OVMR, OVMRUB =          53   51606.1640625   59034.1679688
 CG ITER, OVMR, OVMRUB =          54   51590.5781250   58991.6054688
 CG ITER, OVMR, OVMRUB =          55   51587.0976562   57031.5000000
 CG ITER, OVMR, OVMRUB =          56   51586.4414062   55281.3828125
 CG ITER, OVMR, OVMRUB =          57   51583.3359375   55281.3828125
 CG ITER, OVMR, OVMRUB =          58   51583.4843750   55281.3828125
 CG ITER, OVMR, OVMRUB =          59   51584.3320312   55281.3828125
 CG ITER, OVMR, OVMRUB =          60   51573.6484375   55281.3828125
 CG ITER, OVMR, OVMRUB =          61   51572.7539062   55281.3828125
 CG ITER, OVMR, OVMRUB =          62   51572.6757812   55281.3828125
 CG ITER, OVMR, OVMRUB =          63   51572.6523438   55281.3828125
 CG ITER, OVMR, OVMRUB =          64   51572.0429688   55281.3828125
 CG ITER, OVMR, OVMRUB =          65   51572.2070312   55281.3828125
 CG ITER, OVMR, OVMRUB =          66   51570.5195312   55281.3828125
 CG ITER, OVMR, OVMRUB =          67   51571.9375000   55281.3828125
 CG ITER, OVMR, OVMRUB =          68   51569.7734375   55281.3828125
 CG ITER, OVMR, OVMRUB =          69   51571.5039062   55281.3828125
 CG ITER, OVMR, OVMRUB =          70   51570.5781250   55281.3828125
 CG ITER, OVMR, OVMRUB =          71   51571.3476562   54999.4960938
 CG ITER, OVMR, OVMRUB =          72   51571.9140625   54999.4960938
 CG ITER, OVMR, OVMRUB =          73   51571.3671875   54999.4960938
 CG ITER, OVMR, OVMRUB =          74   51571.4843750   54999.4960938
 CG ITER, OVMR, OVMRUB =          75   51571.3554688   54999.4960938
 CG ITER, OVMR, OVMRUB =          76   51572.0078125   54999.4960938
 CG ITER, OVMR, OVMRUB =          77   51571.2343750   54999.4960938
 CG ITER, OVMR, OVMRUB =          78   51571.6796875   54999.4960938
 CG ITER, OVMR, OVMRUB =          79   51571.5898438   54999.4960938
 CG ITER, OVMR, OVMRUB =          80   51571.5507812   54999.4960938
 CG ITER, OVMR, OVMRUB =          81   51571.5507812   54999.4960938
OVLB =   51571.5507812 OVLUB =   54999.4960938 TIME =      45.2200012
